; aioredis :: corpus-study/repo_src/aioredis/aioredis/connection.py :: wait_for at send_packed_command:860 :: naive encoding (verdict: unsat)
; Generated by snf-pipeline (encoder.py) -- run with any
; SMT-LIB2-compliant solver, e.g. `z3 aioredis__corpus-study_repo_src_aioredis_aioredis_connection.py__waitfor_send_packed_command_L860__naive.smt2`
; benchmark generated from python API
(set-info :status unknown)
(declare-fun timeout_fires () Bool)
(declare-fun cleanup_ran () Bool)
(assert
 (= timeout_fires false))
(assert
 (let (($x52 (not cleanup_ran)))
(and timeout_fires $x52)))
(check-sat)
